files/upTests/_matrixes/setMinSizeMuti/0001.eprime.solution
language ESSENCE' 1.0
$ minion Nodes: 17
$ minion TotalTime: 0.001069
$ Savile Row TotalTime: 0.345
letting m_SetExplicitVarSize_tuple2 be [[[6, 6, 6;int(1..3)], 
[6, 6, 6;int(1..3)];int(10,11)], 
[[6, 6, 6;int(1..3)], 
[6, 6, 6;int(1..3)];int(10,11)];int(4,5)]
letting m_SetExplicitVarSize_tuple1 be [[[true, false, false;int(1..3)], 
[true, false, false;int(1..3)];int(10,11)], 
[[true, false, false;int(1..3)], 
[true, false, false;int(1..3)];int(10,11)];int(4,5)]
